c turning on binary mode checking
c parsing input formula with 259840 variables and 1039934 clauses
c finished parsing, read 3140471 bytes from proof file
c detected empty clause; start verification via backward checking
c 4642 of 1039934 clauses in core                            
c 1485 of 131612 lemmas in core using 32857 resolution steps
c 0 RAT lemmas in core; 103 redundant literals in core lemmas
s VERIFIED
c verification time: 1.276 seconds
